NAME : instances/diverse-tsp/instance-22.tsp
COMMENT : No Comment
TYPE : TSP
DIMENSION: 48
EDGE_WEIGHT_TYPE : EUC_2D
NODE_COORD_SECTION
1 106 363 
2 342 571 
3 1397 508 
4 943 1663 
5 1414 1088 
6 270 483 
7 619 18 
8 1353 1011 
9 1008 717 
10 1398 862 
11 26 15 
12 134 1970 
13 1767 96 
14 1908 696 
15 1558 155 
16 1680 1608 
17 1032 1503 
18 616 1268 
19 411 778 
20 1087 1431 
21 0 234 
22 541 621 
23 1616 942 
24 169 1350 
25 87 1170 
26 789 1043 
27 851 1288 
28 109 1537 
29 352 822 
30 194 1511 
31 31 498 
32 1151 1422 
33 305 1630 
34 1690 1054 
35 1964 350 
36 1490 1343 
37 436 1582 
38 282 1004 
39 1879 1438 
40 1947 852 
41 329 1239 
42 1648 630 
43 1578 308 
44 1416 1713 
45 1249 1181 
46 1193 1784 
47 862 1432 
48 319 522 
EOF
